n_trains = 20;
n_tracks = 8;
tracks = [{1,2,3}, {4,5}, {6,7,8}, {9,10}, {11,12,13,14}, {15}, {16,17}, {18,19,20}];

% tracks = [{1}, {2}, {3}, {4}, {5}, {6}, {7}, {8}, {9}, {10}, {11}, {12}, {13}, {14,15,16,17,18,19,20}];

arrival_order = [3, 15, 20, 10, 6, 18, 1, 14, 8, 7, 12, 13, 4, 2, 19, 5, 16, 11, 17, 9];
% arrival_order = [3, 15, 20, 10, 6, 18, 1, 14, 8, 7, 12, 13, 4, 2, 19, 5, 16, 11, 17, 9];
% arrival_order = [20, 19, 18, 17, 16, 15, 14, 13, 12, 11, 10, 9, 8, 7, 6, 5, 4, 3, 2, 1];
% arrival_order = [1,2,3,4,5,6,7,8,9,10,11,12,13,14,15,16,17,18,19,20];
departure_order = [1,2,3,4,5,6,7,8,9,10,11,12,13,14,15,16,17,18,19,20];
